NAME : tsp_453_sol.txt
COMMENT : OR-Tools Guided Local Search
TYPE : TOUR
DIMENSION : 50
COST : 5951
STATUS : ROUTING_SUCCESS
GAP : 0.00% (Reference Solution)
TOUR_SECTION
1
42
36
45
49
20
28
50
3
22
25
12
19
32
37
6
39
26
18
16
23
15
24
35
48
17
41
5
43
30
27
8
4
34
40
11
21
47
44
31
38
14
13
2
9
10
33
7
46
29
-1
